                                        
   1.00000000000000     
    17.6940844282764651    0.0000000000000000    0.0000000000000000
     0.0000000000000000   15.3248184132545422    0.0000000000000000
     0.0000000000000000    0.0000000000000000    3.9608891246701914
   K    Nb   O    B 
    12    12    48     8
Direct
0.831067391	0	0.488716489
0.331067391	0	0.511283481
0.88360536	0.701794273	0.49475174
0.38360536	0.298205727	0.50524823
0.38360536	0.701794273	0.50524823
0.88360536	0.298205727	0.49475174
0.581437846	0.5	0.49667705
0.081437846	0.5	0.50332298
0.633364436	0.201645598	0.497352271
0.133364436	0.798354402	0.502647728
0.133364436	0.201645598	0.502647728
0.633364436	0.798354402	0.497352271
0.656312177	0	0.969753694
0.156312177	0	0.030246306
0.970927648	0.876275496	0.975066252
0.470927648	0.123724504	0.024933748
0.470927648	0.876275496	0.024933748
0.970927648	0.123724504	0.975066252
0.906728347	0.5	0.987640571
0.406728347	0.5	0.012359429
0.721159965	0.376193849	0.986054257
0.221159965	0.623806121	0.013945742
0.221159965	0.376193849	0.013945742
0.721159965	0.623806121	0.986054257
0.664722461	0	0.495785629
0.164722461	0	0.50421437
0.914989353	0.5	0.514047716
0.414989353	0.5	0.485952284
0.943050271	0	0.000512936
0.443050271	0	0.999487064
0.693320012	0.5	0.010856311
0.193320012	0.5	0.989143705
0.000781215	0.74800002	0.005872057
0.500781222	0.25199998	0.994127967
0.500781222	0.74800002	0.994127967
0.000781215	0.25199998	0.005872057
0.750692555	0.2478819	0.017779563
0.250692555	0.752118115	0.982220417
0.250692555	0.2478819	0.982220417
0.750692555	0.752118115	0.017779563
0.966729285	0.867790443	0.501932439
0.466729285	0.132209558	0.498067561
0.466729285	0.867790443	0.498067561
0.966729285	0.132209558	0.501932439
0.716870034	0.367716404	0.512446564
0.216870034	0.632283626	0.487553436
0.216870034	0.367716404	0.487553436
0.716870034	0.632283626	0.512446564
0.859882963	0.158022498	0.007190497
0.359882963	0.841977517	0.99280949
0.359882963	0.158022498	0.99280949
0.859882963	0.841977517	0.007190497
0.60990582	0.341944646	0.018409266
0.10990582	0.658055325	0.981590723
0.10990582	0.341944646	0.981590723
0.60990582	0.658055325	0.018409266
0.577661341	0.910149424	0.996549728
0.077661341	0.089850576	0.003450271
0.077661341	0.910149424	0.003450271
0.577661341	0.089850576	0.996549728
0.82786089	0.589856531	0.011706042
0.32786089	0.410143469	0.988293976
0.32786089	0.589856531	0.988293976
0.82786089	0.410143469	0.011706042
0.73783128	0.906233362	0.999259504
0.23783128	0.093766638	0.000740495
0.23783128	0.906233362	0.000740495
0.73783128	0.093766638	0.999259504
0.988065394	0.593849143	0.020523711
0.488065394	0.406150857	0.9794763
0.488065394	0.593849143	0.9794763
0.988065394	0.406150857	0.020523711
0.782770766	0.166529031	0.007889489
0.282770766	0.833470969	0.992110505
0.282770766	0.166529031	0.992110505
0.782770766	0.833470969	0.007889489
0.032942058	0.666644508	0.002709831
0.532942084	0.333355492	0.997290165
0.532942084	0.666644508	0.997290165
0.032942058	0.333355492	0.002709831