
1.0
       17.5060005188         0.0000000000         0.0000000000
        0.0000000000        15.1619997025         0.0000000000
        0.0000000000         0.0000000000         3.9679999352
    K   Nb    O    B
   12   12   48    8
Direct
0.83089	0	0.486600012
0.33089	0	0.513399959
0.883920014	0.701919973	0.49307999
0.383920014	0.298080027	0.50691998
0.383920014	0.701919973	0.50691998
0.883920014	0.298080027	0.49307999
0.580959976	0.5	0.493299991
0.080959976	0.5	0.506700039
0.633710027	0.202069998	0.497500002
0.133710027	0.797930002	0.502499998
0.133710027	0.202069998	0.502499998
0.633710027	0.797930002	0.497500002
0.655820012	0	0.954410017
0.155820012	0	0.045589983
0.971159995	0.876909971	0.964299977
0.471159995	0.123090029	0.035700023
0.471159995	0.876909971	0.035700023
0.971159995	0.123090029	0.964299977
0.905939996	0.5	0.978399992
0.405939996	0.5	0.021600008
0.721170008	0.376859993	0.97240001
0.221170008	0.623139977	0.02759999
0.221170008	0.376859993	0.02759999
0.721170008	0.623139977	0.97240001
0.663500011	0	0.500699997
0.163500011	0	0.499300003
0.913500011	0.5	0.519500017
0.413500011	0.5	0.480499983
0.941299975	0	-0.99970001
0.441299975	0	0.00029999
0.692099988	0.5	0.0114
0.192099988	0.5	0.988600016
0.0004	0.74849999	0.0074
0.500400007	0.25150001	0.992600024
0.500400007	0.74849999	0.992600024
0.0004	0.25150001	0.0074
0.75029999	0.248500004	0.0206
0.25029999	0.75150001	0.979399979
0.25029999	0.248500004	0.979399979
0.75029999	0.75150001	0.0206
0.968299985	0.869599998	0.505400002
0.468299985	0.130400002	0.494599998
0.468299985	0.869599998	0.494599998
0.968299985	0.130400002	0.505400002
0.718100011	0.369800001	0.518899977
0.218100011	0.630200028	0.481100023
0.218100011	0.369800001	0.481100023
0.718100011	0.630200028	0.518899977
0.860099971	0.158000007	0.0087
0.360099971	0.842000008	0.991299987
0.360099971	0.158000007	0.991299987
0.860099971	0.842000008	0.0087
0.610300004	0.342099994	0.0209
0.110300004	0.657899976	0.979099989
0.110300004	0.342099994	0.979099989
0.610300004	0.657899976	0.0209
0.577499986	0.909600019	0.995999992
0.077499986	0.090399981	0.004000008
0.077499986	0.909600019	0.004000008
0.577499986	0.090399981	0.995999992
0.827799976	0.589999974	0.0139
0.327799976	0.410000026	0.986100018
0.327799976	0.589999974	0.986100018
0.827799976	0.410000026	0.0139
0.737699986	0.906499982	0.000200033
0.237699986	0.093500018	-0.999799967
0.237699986	0.906499982	-0.999799967
0.737699986	0.093500018	0.000200033
0.987800002	0.593699992	0.024
0.487800002	0.406300008	0.976000011
0.487800002	0.593699992	0.976000011
0.987800002	0.406300008	0.024
0.783399999	0.166700006	0.0083
0.283399999	0.833299994	0.991699994
0.283399999	0.166700006	0.991699994
0.783399999	0.833299994	0.0083
0.033199999	0.666700006	0.0029
0.533200026	0.333299994	0.997099996
0.533200026	0.666700006	0.997099996
0.033199999	0.333299994	0.0029