Ti1 Pb1 O3                              
   1.00000000000000     
     3.8626440676942879   -0.0000000000000000    0.0000000000000002
     0.0000000000000006    3.8626440676942879    0.0000000000000002
    -0.0000000000000000   -0.0000000000000000    4.2573278988916723
   Ti   Pb   O 
     1     1     3
Direct
  0.5000000000000000  0.5000000000000000  0.5000000000000000
 -0.0000000000000000  0.0000000000000000  0.0000000000000000
 -0.0000000000000000  0.5000000000000000  0.5000000000000000
  0.5000000000000000  0.0000000000000000  0.5000000000000000
  0.5000000000000000  0.5000000000000000  0.0000000000000000
 
  0.00000000E+00  0.00000000E+00  0.00000000E+00
  0.00000000E+00  0.00000000E+00  0.00000000E+00
  0.00000000E+00  0.00000000E+00  0.00000000E+00
  0.00000000E+00  0.00000000E+00  0.00000000E+00
  0.00000000E+00  0.00000000E+00  0.00000000E+00
