sm_isp_SD0313746-standardized_unitcell
   1.00000000000000
     3.8531733931740737    0.0000000000000000    0.0000000000000000
     0.0000000000000000    3.8531733931740737    0.0000000000000000
     0.0000000000000000   -0.0000000000000000    4.1591930487756299
   O    Pb   Ti
     3     1     1
Direct
  0.5000000000000000  0.0000000000000000  0.0000000000000000
  0.0000000000000000  0.5000000000000000  0.0000000000000000
  0.0000000000000000 -0.0000000000000000  0.5000000000000000
  0.5000000000000000  0.5000000000000000  0.5000000000000000
  0.0000000000000000  0.0000000000000000  0.0000000000000000

  0.00000000E+00  0.00000000E+00  0.00000000E+00
  0.00000000E+00  0.00000000E+00  0.00000000E+00
  0.00000000E+00  0.00000000E+00  0.00000000E+00
  0.00000000E+00  0.00000000E+00  0.00000000E+00
  0.00000000E+00  0.00000000E+00  0.00000000E+00
