generated by phonopy
   1.0
     3.9675834773753103    0.0000000000000000    0.0000000000000000
     0.0000000000000000    3.9675834773753098    0.0000000000000000
     0.0000000000000000    0.0000000000000000    4.0688187390753514
Ba Ti O
   1    1    3
Direct
  0.0000000000000000  0.0000000000000000  0.0079979716680235
  0.5000000000000000  0.5000000000000000  0.4913531192641145
  0.5000000000000000  0.5000000000000000  0.0390091355785990
  0.5000000000000000  0.0000000000000000  0.5264362600269422
  0.0000000000000000  0.5000000000000000  0.5264362600269422
