New structure                           
1.0
        5.8353600502         0.0000000000         0.0000000000
       -2.9176800251         5.0535700437         0.0000000000
        0.0000000000         0.0000000000        11.5478200912
    Y   Mn    O
    6    6   18
Direct
     0.001210000         0.001210000         0.277123004
     0.998790026         0.998790026         0.777122974
     0.334618986         0.667177022         0.230729997
     0.665381014         0.332823008         0.730729997
     0.332823008         0.665381014         0.730729997
     0.667177022         0.334618986         0.230729997
     0.334217995         0.999921978         0.999554992
     0.999921978         0.334217995         0.999554992
     0.665736973         0.665736973         0.999948025
     0.665781975         0.000078000         0.499554992
     0.000078000         0.665781975         0.499554992
     0.334262997         0.334262997         0.499947995
     0.302516013         0.000567000         0.165621996
     0.000567000         0.302516013         0.165621996
     0.699747026         0.699747026         0.166261002
     0.697484016         0.999432981         0.665621996
     0.999432981         0.697484016         0.665621996
     0.300253004         0.300253004         0.666261017
     0.636120021         0.001092000         0.335377008
     0.001092000         0.636120021         0.335377008
     0.365803987         0.365803987         0.335049003
     0.363880008         0.998907983         0.835376978
     0.998907983         0.363880008         0.835376978
     0.634195983         0.634195983         0.835048974
     0.003379000         0.003379000         0.474510014
     0.996621013         0.996621013         0.974510014
     0.336921990         0.666665971         0.021720000
     0.663078010         0.333333999         0.521719992
     0.333333999         0.663078010         0.521719992
     0.666665971         0.336921990         0.021720000
