New structure                           
1.0
        5.8353600502         0.0000000000         0.0000000000
       -2.9176800251         5.0535700437         0.0000000000
        0.0000000000         0.0000000000        11.5478200912
    Y   Mn    O
    6    6   18
Direct
     0.000000000         0.000000000         0.250000000
     0.000000000         0.000000000         0.750000000
     0.333332986         0.666666985         0.250000000
     0.666666985         0.333332986         0.750000000
     0.333332986         0.666666985         0.750000000
     0.666666985         0.333332986         0.250000000
     0.333332986         0.000000000         0.000000000
     0.000000000         0.333332986         0.000000000
     0.666666985         0.666666985         0.000000000
     0.666666985         0.000000000         0.500000000
     0.000000000         0.666666985         0.500000000
     0.333332986         0.333332986         0.500000000
     0.333332986         0.000000000         0.166666999
     0.000000000         0.333332986         0.166666999
     0.666666985         0.666666985         0.166666999
     0.666666985         0.000000000         0.666666985
     0.000000000         0.666666985         0.666666985
     0.333332986         0.333332986         0.666666985
     0.666666985         0.000000000         0.333332986
     0.000000000         0.666666985         0.333332986
     0.333332986         0.333332986         0.333332986
     0.333332986         0.000000000         0.833333015
     0.000000000         0.333332986         0.833333015
     0.666666985         0.666666985         0.833333015
     0.000000000         0.000000000         0.500000000
     0.000000000         0.000000000         0.000000000
     0.333332986         0.666666985         0.000000000
     0.666666985         0.333332986         0.500000000
     0.333332986         0.666666985         0.500000000
     0.666666985         0.333332986         0.000000000
